SPARKNaCl/why3-z3/sparknacl-utils.adb_410_21_index_check2_1.smt2
;; produced by z3_gnatprove.drv ;;
(set-info :smt-lib-version 2.5)
(set-info :source |VC generated by SPARK 2014|)
(set-info :category industrial)
(set-info :status unknown)
;;; generated by SMT-LIB2 driver
;;; SMT-LIB2 driver: bit-vectors, common part
;;; SMT-LIB2: integer arithmetic
(declare-datatypes ()
  ((int__ref (int__refqtmk (int__content Int)))))

(declare-sort byte 0)

;; "to_rep"
(declare-fun to_rep (byte) (_ BitVec 8))

;; "of_rep"
(declare-fun of_rep ((_ BitVec 8)) byte)

;; "inversion_axiom"
(assert
  (forall ((x byte)) (! (= (of_rep (to_rep x)) x) :pattern ((to_rep x)) )))

;; "range_axiom"
(assert true)

;; "coerce_axiom"
(assert
  (forall ((x (_ BitVec 8)))
    (! (= (to_rep (of_rep x)) x) :pattern ((to_rep (of_rep x))) )))

(declare-sort map1 0)

;; "has_bounds"
(declare-fun has_bounds (map1
  Int
  Int) Bool)

;; "get"
(declare-fun get (map1
  Int) byte)

(declare-const n map1)

(declare-sort gf16_normal_limb 0)

(declare-datatypes ()
  ((gf16_normal_limb__init_wrapper
   (gf16_normal_limb__init_wrapperqtmk
   (rec__value gf16_normal_limb)(us_attr__init Bool)))))

(declare-sort map2 0)

(declare-datatypes ()
  ((map__ref (map__refqtmk (map__content map2)))))

;; "has_bounds"
(declare-fun has_bounds1 (map2
  Int
  Int) Bool)

;; "get"
(declare-fun get1 (map2
  Int) gf16_normal_limb__init_wrapper)

;; "set"
(declare-fun set (map2
  Int
  gf16_normal_limb__init_wrapper) map2)

;; "set_eq"
(assert
  (forall ((a map2) (i Int) (v gf16_normal_limb__init_wrapper))
    (! (= (get1 (set a i v) i) v) :pattern ((set a i v)) )))

;; "set_neq"
(assert
  (forall ((a map2) (i Int) (v gf16_normal_limb__init_wrapper))
    (! (forall ((j Int))
         (! (=> (not (= i j)) (= (get1 (set a i v) j) (get1 a j))) :pattern (
         (get1
           a
           j)) :pattern ((get1 (set a i v) j)) )) :pattern ((set a i v)) )))

;; "set_has_bounds"
(assert
  (forall ((a map2) (i Int) (f Int) (l Int) (v gf16_normal_limb__init_wrapper))
    (! (=>
         (and (<= f i) (<= i l))
         (=> (has_bounds1 a f l) (has_bounds1 (set a i v) f l))) :pattern (
    (has_bounds1
      (set a i v)
      f
      l)) )))

;; "to_rep"
(declare-fun to_rep1 (gf16_normal_limb) (_ BitVec 16))

;; "of_rep"
(declare-fun of_rep1 ((_ BitVec 16)) gf16_normal_limb)

;; "inversion_axiom"
(assert
  (forall ((x gf16_normal_limb))
    (! (= (of_rep1 (to_rep1 x)) x) :pattern ((to_rep1 x)) )))

;; "range_axiom"
(assert true)

;; "coerce_axiom"
(assert
  (forall ((x (_ BitVec 16)))
    (! (= (to_rep1 (of_rep1 x)) x) :pattern ((to_rep1 (of_rep1 x))) )))

(declare-const o map2)

;; "o'unused"
(define-fun oqtunused () map__ref
  (map__refqtmk o))

;; "Assume"
(assert (has_bounds n 0 31))

;; "Assume"
(assert (has_bounds1 o 0 15))

(declare-const i Int)

;; "i'unused"
(define-fun iqtunused () int__ref
  (int__refqtmk i))

;; "H"
(assert (= i 0))

;; "int__content'result'unused"
(define-fun int__contentqtresultqtunused () Int
  i)

;; "o"
(define-fun o1 () Bool
  (ite (<= i 15) true false))

;; "infix <='result'unused"
(define-fun infix_lseqqtresultqtunused () Bool
  o1)

;; "int__content'result'unused"
(define-fun int__contentqtresultqtunused1 () Int
  i)

;; "o"
(define-fun o2 () Bool
  (ite (<= 0 i) true false))

;; "infix <='result'unused"
(define-fun infix_lseqqtresultqtunused1 () Bool
  o2)

;; "o"
(define-fun o3 () Bool
  (and o2 o1))

;; "andb'result'unused"
(define-fun andbqtresultqtunused () Bool
  o3)

;; "H"
(assert (= o3 true))

;; "temp___loop_entry_847'unused"
(define-fun temp___loop_entry_847qtunused () map2
  o)

;; "map__content'result'unused"
(define-fun map__contentqtresultqtunused () map2
  o)

;; "int__content'result'unused"
(define-fun int__contentqtresultqtunused2 () Int
  i)

;; "o"
(define-fun o4 () Int
  (* 2 i))

;; "infix *'result'unused"
(define-fun infix_asqtresultqtunused () Int
  o4)

;; "o"
(define-fun o5 () Int
  (+ o4 1))

;; "infix +'result'unused"
(define-fun infix_plqtresultqtunused () Int
  o5)

;; "o"
(define-fun o6 () byte
  (get n o5))

;; "get'result'unused"
(define-fun getqtresultqtunused () byte
  o6)

(declare-const o7 (_ BitVec 8))

;; "Ensures"
(assert (= (to_rep o6) o7))

;; "to_rep'result'unused"
(define-fun to_repqtresultqtunused () (_ BitVec 8)
  o7)

;; "o"
(define-fun o8 () (_ BitVec 16)
  ((_ zero_extend 8) o7))

;; "toBig'result'unused"
(define-fun toBigqtresultqtunused () (_ BitVec 16)
  o8)

;; "o"
(define-fun o9 () (_ BitVec 16)
  (bvmul o8 #x0100))

;; "mul'result'unused"
(define-fun mulqtresultqtunused () (_ BitVec 16)
  o9)

;; "int__content'result'unused"
(define-fun int__contentqtresultqtunused3 () Int
  i)

;; "o"
(define-fun o10 () Int
  (* 2 i))

;; "infix *'result'unused"
(define-fun infix_asqtresultqtunused1 () Int
  o10)

;; "o"
(define-fun o11 () byte
  (get n o10))

;; "get'result'unused"
(define-fun getqtresultqtunused1 () byte
  o11)

(declare-const o12 (_ BitVec 8))

;; "Ensures"
(assert (= (to_rep o11) o12))

;; "to_rep'result'unused"
(define-fun to_repqtresultqtunused1 () (_ BitVec 8)
  o12)

;; "o"
(define-fun o13 () (_ BitVec 16)
  ((_ zero_extend 8) o12))

;; "toBig'result'unused"
(define-fun toBigqtresultqtunused1 () (_ BitVec 16)
  o13)

;; "o"
(define-fun o14 () (_ BitVec 16)
  (bvadd o13 o9))

;; "add'result'unused"
(define-fun addqtresultqtunused () (_ BitVec 16)
  o14)

(declare-const o15 gf16_normal_limb)

;; "Ensures"
(assert (= (to_rep1 o15) o14))

;; "of_rep'result'unused"
(define-fun of_repqtresultqtunused () gf16_normal_limb
  o15)

;; "o"
(define-fun o16 () gf16_normal_limb__init_wrapper
  (gf16_normal_limb__init_wrapperqtmk o15 true))

;; "to_wrapper'result'unused"
(define-fun to_wrapperqtresultqtunused () gf16_normal_limb__init_wrapper
  o16)

;; "int__content'result'unused"
(define-fun int__contentqtresultqtunused4 () Int
  i)

;; "map__content'result'unused"
(define-fun map__contentqtresultqtunused1 () map2
  o)

;; "o"
(define-fun o17 () map2
  (set o i o16))

;; "set'result'unused"
(define-fun setqtresultqtunused () map2
  o17)

(declare-const o18 map2)

;; "o'unused"
(define-fun oqtunused1 () map__ref
  (map__refqtmk o18))

;; "H"
(assert (= o18 o17))

(declare-const usf Int)

;; "any'result'unused"
(define-fun anyqtresultqtunused () Int
  usf)

;; "j'unused"
(define-fun jqtunused () Int
  usf)

;; "int__content'result'unused"
(define-fun int__contentqtresultqtunused5 () Int
  i)

;; "o"
(define-fun o19 () Bool
  (ite (<= usf i) true false))

;; "infix <='result'unused"
(define-fun infix_lseqqtresultqtunused2 () Bool
  o19)

;; "o"
(define-fun o20 () Bool
  (ite (<= 0 usf) true false))

;; "infix <='result'unused"
(define-fun infix_lseqqtresultqtunused3 () Bool
  o20)

;; "o"
(define-fun o21 () Bool
  (and o20 o19))

;; "andb'result'unused"
(define-fun andbqtresultqtunused1 () Bool
  o21)

;; "H"
(assert (= o21 true))

;; Goal "def'vc"
;; File "sparknacl-utils.ads", line 62, characters 0-0
(assert
  (not (<= usf 15)))

(check-sat)
